formal_verification/runs/model_eval_v7_100/case_099/run/model/design_smt2.smt2
; SMT-LIBv2 description generated by Yosys 0.64+40 (git sha1 90b906c4f, clang++ 18.1.8 -fPIC -O3)
; yosys-smt2-module vert_formal_wrap
(declare-sort |vert_formal_wrap_s| 0)
(declare-fun |vert_formal_wrap_is| (|vert_formal_wrap_s|) Bool)
; yosys-smt2-witness {"offset": 0, "path": ["$auto$async2sync.cc:107:execute$221"], "smtname": 0, "smtoffset": 0, "type": "reg", "width": 1}
(declare-fun |vert_formal_wrap#0| (|vert_formal_wrap_s|) (_ BitVec 1)) ; $auto$async2sync.cc:107:execute$221
; yosys-smt2-register $auto$async2sync.cc:107:execute$221 1
(define-fun |vert_formal_wrap_n $auto$async2sync.cc:107:execute$221| ((state |vert_formal_wrap_s|)) Bool (= ((_ extract 0 0) (|vert_formal_wrap#0| state)) #b1))
; yosys-smt2-witness {"offset": 0, "path": ["$auto$async2sync.cc:116:execute$207"], "smtname": 1, "smtoffset": 0, "type": "reg", "width": 1}
(declare-fun |vert_formal_wrap#1| (|vert_formal_wrap_s|) (_ BitVec 1)) ; $auto$async2sync.cc:116:execute$207
; yosys-smt2-register $auto$async2sync.cc:116:execute$207 1
(define-fun |vert_formal_wrap_n $auto$async2sync.cc:116:execute$207| ((state |vert_formal_wrap_s|)) Bool (= ((_ extract 0 0) (|vert_formal_wrap#1| state)) #b1))
; yosys-smt2-witness {"offset": 0, "path": ["\\_started"], "smtname": 2, "smtoffset": 0, "type": "reg", "width": 1}
(declare-fun |vert_formal_wrap#2| (|vert_formal_wrap_s|) (_ BitVec 1)) ; \_started
; yosys-smt2-register _started 1
; yosys-smt2-wire _started 1
(define-fun |vert_formal_wrap_n _started| ((state |vert_formal_wrap_s|)) Bool (= ((_ extract 0 0) (|vert_formal_wrap#2| state)) #b1))
; yosys-smt2-wire auth_1 32
(define-fun |vert_formal_wrap_n auth_1| ((state |vert_formal_wrap_s|)) (_ BitVec 32) #b00000000000000000000000000000000)
; yosys-smt2-wire cfg_14 32
(define-fun |vert_formal_wrap_n cfg_14| ((state |vert_formal_wrap_s|)) (_ BitVec 32) #b00000000000000000000000000000000)
; yosys-smt2-wire chip_14 32
(define-fun |vert_formal_wrap_n chip_14| ((state |vert_formal_wrap_s|)) (_ BitVec 32) #b00000000000000000000000000000000)
; yosys-smt2-wire chip_19 32
(define-fun |vert_formal_wrap_n chip_19| ((state |vert_formal_wrap_s|)) (_ BitVec 32) #b00000000000000000000000000000000)
; yosys-smt2-wire clk_6 32
(define-fun |vert_formal_wrap_n clk_6| ((state |vert_formal_wrap_s|)) (_ BitVec 32) #b00000000000000000000000000000000)
; yosys-smt2-anyseq vert_formal_wrap#3 1 $auto$setundef.cc:350:execute$273
; yosys-smt2-witness {"offset": 0, "path": ["\\clock_ctrl_18"], "smtname": 3, "smtoffset": 0, "type": "seq", "width": 1}
(declare-fun |vert_formal_wrap#3| (|vert_formal_wrap_s|) (_ BitVec 1)) ; \clock_ctrl_18
; yosys-smt2-wire clock_ctrl_18 1
; yosys-smt2-clock clock_ctrl_18 posedge
(define-fun |vert_formal_wrap_n clock_ctrl_18| ((state |vert_formal_wrap_s|)) Bool (= ((_ extract 0 0) (|vert_formal_wrap#3| state)) #b1))
; yosys-smt2-wire core_6 32
(define-fun |vert_formal_wrap_n core_6| ((state |vert_formal_wrap_s|)) (_ BitVec 32) #b00000000000000000000000000000000)
; yosys-smt2-wire data_1 32
(define-fun |vert_formal_wrap_n data_1| ((state |vert_formal_wrap_s|)) (_ BitVec 32) #b00000000000000000000000000000000)
; yosys-smt2-wire data_185 32
(define-fun |vert_formal_wrap_n data_185| ((state |vert_formal_wrap_s|)) (_ BitVec 32) #b00000000000000000000000000000000)
; yosys-smt2-wire data_20 32
(define-fun |vert_formal_wrap_n data_20| ((state |vert_formal_wrap_s|)) (_ BitVec 32) #b00000000000000000000000000000000)
; yosys-smt2-wire data_8 32
(define-fun |vert_formal_wrap_n data_8| ((state |vert_formal_wrap_s|)) (_ BitVec 32) #b00000000000000000000000000000000)
; yosys-smt2-wire err_11 32
(define-fun |vert_formal_wrap_n err_11| ((state |vert_formal_wrap_s|)) (_ BitVec 32) #b00000000000000000000000000000000)
; yosys-smt2-wire err_14 32
(define-fun |vert_formal_wrap_n err_14| ((state |vert_formal_wrap_s|)) (_ BitVec 32) #b00000000000000000000000000000000)
; yosys-smt2-wire fsm_12 32
(define-fun |vert_formal_wrap_n fsm_12| ((state |vert_formal_wrap_s|)) (_ BitVec 32) #b00000000000000000000000000000000)
; yosys-smt2-witness {"offset": 0, "path": ["\\fsm_6"], "smtname": 4, "smtoffset": 0, "type": "reg", "width": 32}
(declare-fun |vert_formal_wrap#4| (|vert_formal_wrap_s|) (_ BitVec 32)) ; \fsm_6
; yosys-smt2-register fsm_6 32
; yosys-smt2-wire fsm_6 32
(define-fun |vert_formal_wrap_n fsm_6| ((state |vert_formal_wrap_s|)) (_ BitVec 32) (|vert_formal_wrap#4| state))
; yosys-smt2-witness {"offset": 0, "path": ["\\fsm_8"], "smtname": 5, "smtoffset": 0, "type": "reg", "width": 32}
(declare-fun |vert_formal_wrap#5| (|vert_formal_wrap_s|) (_ BitVec 32)) ; \fsm_8
; yosys-smt2-register fsm_8 32
; yosys-smt2-wire fsm_8 32
(define-fun |vert_formal_wrap_n fsm_8| ((state |vert_formal_wrap_s|)) (_ BitVec 32) (|vert_formal_wrap#5| state))
; yosys-smt2-wire hw_17 32
(define-fun |vert_formal_wrap_n hw_17| ((state |vert_formal_wrap_s|)) (_ BitVec 32) #b00000000000000000000000000000000)
; yosys-smt2-wire hw_20 32
(define-fun |vert_formal_wrap_n hw_20| ((state |vert_formal_wrap_s|)) (_ BitVec 32) #b00000000000000000000000000000000)
; yosys-smt2-wire reg_20 32
(define-fun |vert_formal_wrap_n reg_20| ((state |vert_formal_wrap_s|)) (_ BitVec 32) #b00000000000000000000000000000000)
; yosys-smt2-wire rst 1
(define-fun |vert_formal_wrap_n rst| ((state |vert_formal_wrap_s|)) Bool false)
; yosys-smt2-wire rst_10 32
(define-fun |vert_formal_wrap_n rst_10| ((state |vert_formal_wrap_s|)) (_ BitVec 32) #b00000000000000000000000000000000)
; yosys-smt2-wire rx_1 32
(define-fun |vert_formal_wrap_n rx_1| ((state |vert_formal_wrap_s|)) (_ BitVec 32) #b00000000000000000000000000000000)
; yosys-smt2-wire rx_7 32
(define-fun |vert_formal_wrap_n rx_7| ((state |vert_formal_wrap_s|)) (_ BitVec 32) #b00000000000000000000000000000000)
; yosys-smt2-wire sig_5 32
(define-fun |vert_formal_wrap_n sig_5| ((state |vert_formal_wrap_s|)) (_ BitVec 32) #b00000000000000000000000000000000)
; yosys-smt2-wire sig_6 32
(define-fun |vert_formal_wrap_n sig_6| ((state |vert_formal_wrap_s|)) (_ BitVec 32) #b00000000000000000000000000000000)
; yosys-smt2-wire tx_4 32
(define-fun |vert_formal_wrap_n tx_4| ((state |vert_formal_wrap_s|)) (_ BitVec 32) #b00000000000000000000000000000000)
(define-fun |vert_formal_wrap#6| ((state |vert_formal_wrap_s|)) (_ BitVec 1) (bvnot (|vert_formal_wrap#3| state))) ; $auto$rtlil.cc:3255:Not$276
; yosys-smt2-assume 0 $auto$formalff.cc:987:execute$277
(define-fun |vert_formal_wrap_u 0| ((state |vert_formal_wrap_s|)) Bool (or (= ((_ extract 0 0) (|vert_formal_wrap#6| state)) #b1) (not true))) ; $auto$formalff.cc:987:execute$277
; yosys-smt2-assert 0 _witness_.check_assert_vert_formal_wrap_sv_100_30 vert_formal_wrap.sv:100.5-100.132
(define-fun |vert_formal_wrap_a 0| ((state |vert_formal_wrap_s|)) Bool (or true (not (= ((_ extract 0 0) (|vert_formal_wrap#0| state)) #b1)))) ; _witness_.check_assert_vert_formal_wrap_sv_100_30
; yosys-smt2-assert 1 _witness_.check_assert_vert_formal_wrap_sv_101_42 vert_formal_wrap.sv:101.5-101.135
(define-fun |vert_formal_wrap_a 1| ((state |vert_formal_wrap_s|)) Bool (or true (not (= ((_ extract 0 0) (|vert_formal_wrap#0| state)) #b1)))) ; _witness_.check_assert_vert_formal_wrap_sv_101_42
; yosys-smt2-assert 2 _witness_.check_assert_vert_formal_wrap_sv_102_55 vert_formal_wrap.sv:102.5-102.73
(define-fun |vert_formal_wrap_a 2| ((state |vert_formal_wrap_s|)) Bool (or true (not (= ((_ extract 0 0) (|vert_formal_wrap#0| state)) #b1)))) ; _witness_.check_assert_vert_formal_wrap_sv_102_55
; yosys-smt2-assert 3 _witness_.check_assert_vert_formal_wrap_sv_103_62 vert_formal_wrap.sv:103.5-103.114
(define-fun |vert_formal_wrap_a 3| ((state |vert_formal_wrap_s|)) Bool (or (= ((_ extract 0 0) (|vert_formal_wrap#1| state)) #b1) (not (= ((_ extract 0 0) (|vert_formal_wrap#0| state)) #b1)))) ; _witness_.check_assert_vert_formal_wrap_sv_103_62
; yosys-smt2-assert 4 _witness_.check_assert_vert_formal_wrap_sv_104_73 vert_formal_wrap.sv:104.5-104.158
(define-fun |vert_formal_wrap_a 4| ((state |vert_formal_wrap_s|)) Bool (or true (not (= ((_ extract 0 0) (|vert_formal_wrap#0| state)) #b1)))) ; _witness_.check_assert_vert_formal_wrap_sv_104_73
; yosys-smt2-assert 5 _witness_.check_assert_vert_formal_wrap_sv_98_16 vert_formal_wrap.sv:98.7-98.73
(define-fun |vert_formal_wrap_a 5| ((state |vert_formal_wrap_s|)) Bool (or true (not (= ((_ extract 0 0) (|vert_formal_wrap#0| state)) #b1)))) ; _witness_.check_assert_vert_formal_wrap_sv_98_16
; yosys-smt2-assert 6 _witness_.check_assert_vert_formal_wrap_sv_99_22 vert_formal_wrap.sv:99.5-99.95
(define-fun |vert_formal_wrap_a 6| ((state |vert_formal_wrap_s|)) Bool (or true (not (= ((_ extract 0 0) (|vert_formal_wrap#0| state)) #b1)))) ; _witness_.check_assert_vert_formal_wrap_sv_99_22
(define-fun |vert_formal_wrap#7| ((state |vert_formal_wrap_s|)) (_ BitVec 1) (ite (= ((_ extract 0 0) (|vert_formal_wrap#2| state)) #b1) #b1 #b0)) ; $assert$vert_formal_wrap.sv:100$30_EN
; yosys-smt2-assume 1 _witness_.check_assume_vert_formal_wrap_sv_97_14 vert_formal_wrap.sv:97.5-97.18
(define-fun |vert_formal_wrap_u 1| ((state |vert_formal_wrap_s|)) Bool (or true (not (= ((_ extract 0 0) (|vert_formal_wrap#7| state)) #b1)))) ; _witness_.check_assume_vert_formal_wrap_sv_97_14
(define-fun |vert_formal_wrap#8| ((state |vert_formal_wrap_s|)) Bool (and (or  (= ((_ extract 0 0) (|vert_formal_wrap#4| state)) #b1) (= ((_ extract 1 1) (|vert_formal_wrap#4| state)) #b1) (= ((_ extract 2 2) (|vert_formal_wrap#4| state)) #b1) (= ((_ extract 3 3) (|vert_formal_wrap#4| state)) #b1) (= ((_ extract 4 4) (|vert_formal_wrap#4| state)) #b1) (= ((_ extract 5 5) (|vert_formal_wrap#4| state)) #b1) (= ((_ extract 6 6) (|vert_formal_wrap#4| state)) #b1) (= ((_ extract 7 7) (|vert_formal_wrap#4| state)) #b1) (= ((_ extract 8 8) (|vert_formal_wrap#4| state)) #b1) (= ((_ extract 9 9) (|vert_formal_wrap#4| state)) #b1) (= ((_ extract 10 10) (|vert_formal_wrap#4| state)) #b1) (= ((_ extract 11 11) (|vert_formal_wrap#4| state)) #b1) (= ((_ extract 12 12) (|vert_formal_wrap#4| state)) #b1) (= ((_ extract 13 13) (|vert_formal_wrap#4| state)) #b1) (= ((_ extract 14 14) (|vert_formal_wrap#4| state)) #b1) (= ((_ extract 15 15) (|vert_formal_wrap#4| state)) #b1) (= ((_ extract 16 16) (|vert_formal_wrap#4| state)) #b1) (= ((_ extract 17 17) (|vert_formal_wrap#4| state)) #b1) (= ((_ extract 18 18) (|vert_formal_wrap#4| state)) #b1) (= ((_ extract 19 19) (|vert_formal_wrap#4| state)) #b1) (= ((_ extract 20 20) (|vert_formal_wrap#4| state)) #b1) (= ((_ extract 21 21) (|vert_formal_wrap#4| state)) #b1) (= ((_ extract 22 22) (|vert_formal_wrap#4| state)) #b1) (= ((_ extract 23 23) (|vert_formal_wrap#4| state)) #b1) (= ((_ extract 24 24) (|vert_formal_wrap#4| state)) #b1) (= ((_ extract 25 25) (|vert_formal_wrap#4| state)) #b1) (= ((_ extract 26 26) (|vert_formal_wrap#4| state)) #b1) (= ((_ extract 27 27) (|vert_formal_wrap#4| state)) #b1) (= ((_ extract 28 28) (|vert_formal_wrap#4| state)) #b1) (= ((_ extract 29 29) (|vert_formal_wrap#4| state)) #b1) (= ((_ extract 30 30) (|vert_formal_wrap#4| state)) #b1) (= ((_ extract 31 31) (|vert_formal_wrap#4| state)) #b1)) (or  false false false false false false false false false false false false false false false false false false false false false false false false false false false false false false false false))) ; $logic_and$vert_formal_wrap.sv:103$67_Y
(define-fun |vert_formal_wrap#9| ((state |vert_formal_wrap_s|)) (_ BitVec 32) (ite (|vert_formal_wrap#8| state) #b00000000000000000000000000000000 (|vert_formal_wrap#5| state))) ; $0\fsm_8[31:0]
(define-fun |vert_formal_wrap#10| ((state |vert_formal_wrap_s|)) (_ BitVec 32) (ite (|vert_formal_wrap#8| state) (|vert_formal_wrap#4| state) #b00000000000000000000000000000000)) ; $0\fsm_6[31:0]
(define-fun |vert_formal_wrap#11| ((state |vert_formal_wrap_s|)) Bool (not (or  (|vert_formal_wrap#8| state) false))) ; $logic_not$vert_formal_wrap.sv:103$70_Y
(define-fun |vert_formal_wrap#12| ((state |vert_formal_wrap_s|)) Bool (not (or  (= ((_ extract 0 0) (|vert_formal_wrap#5| state)) #b1) (= ((_ extract 1 1) (|vert_formal_wrap#5| state)) #b1) (= ((_ extract 2 2) (|vert_formal_wrap#5| state)) #b1) (= ((_ extract 3 3) (|vert_formal_wrap#5| state)) #b1) (= ((_ extract 4 4) (|vert_formal_wrap#5| state)) #b1) (= ((_ extract 5 5) (|vert_formal_wrap#5| state)) #b1) (= ((_ extract 6 6) (|vert_formal_wrap#5| state)) #b1) (= ((_ extract 7 7) (|vert_formal_wrap#5| state)) #b1) (= ((_ extract 8 8) (|vert_formal_wrap#5| state)) #b1) (= ((_ extract 9 9) (|vert_formal_wrap#5| state)) #b1) (= ((_ extract 10 10) (|vert_formal_wrap#5| state)) #b1) (= ((_ extract 11 11) (|vert_formal_wrap#5| state)) #b1) (= ((_ extract 12 12) (|vert_formal_wrap#5| state)) #b1) (= ((_ extract 13 13) (|vert_formal_wrap#5| state)) #b1) (= ((_ extract 14 14) (|vert_formal_wrap#5| state)) #b1) (= ((_ extract 15 15) (|vert_formal_wrap#5| state)) #b1) (= ((_ extract 16 16) (|vert_formal_wrap#5| state)) #b1) (= ((_ extract 17 17) (|vert_formal_wrap#5| state)) #b1) (= ((_ extract 18 18) (|vert_formal_wrap#5| state)) #b1) (= ((_ extract 19 19) (|vert_formal_wrap#5| state)) #b1) (= ((_ extract 20 20) (|vert_formal_wrap#5| state)) #b1) (= ((_ extract 21 21) (|vert_formal_wrap#5| state)) #b1) (= ((_ extract 22 22) (|vert_formal_wrap#5| state)) #b1) (= ((_ extract 23 23) (|vert_formal_wrap#5| state)) #b1) (= ((_ extract 24 24) (|vert_formal_wrap#5| state)) #b1) (= ((_ extract 25 25) (|vert_formal_wrap#5| state)) #b1) (= ((_ extract 26 26) (|vert_formal_wrap#5| state)) #b1) (= ((_ extract 27 27) (|vert_formal_wrap#5| state)) #b1) (= ((_ extract 28 28) (|vert_formal_wrap#5| state)) #b1) (= ((_ extract 29 29) (|vert_formal_wrap#5| state)) #b1) (= ((_ extract 30 30) (|vert_formal_wrap#5| state)) #b1) (= ((_ extract 31 31) (|vert_formal_wrap#5| state)) #b1)))) ; $eq$vert_formal_wrap.sv:103$71_Y
(define-fun |vert_formal_wrap#13| ((state |vert_formal_wrap_s|)) Bool (or  (|vert_formal_wrap#11| state) false  (|vert_formal_wrap#12| state) false)) ; $logic_or$vert_formal_wrap.sv:103$72_Y
(define-fun |vert_formal_wrap_a| ((state |vert_formal_wrap_s|)) Bool (and
  (|vert_formal_wrap_a 0| state)
  (|vert_formal_wrap_a 1| state)
  (|vert_formal_wrap_a 2| state)
  (|vert_formal_wrap_a 3| state)
  (|vert_formal_wrap_a 4| state)
  (|vert_formal_wrap_a 5| state)
  (|vert_formal_wrap_a 6| state)
))
(define-fun |vert_formal_wrap_u| ((state |vert_formal_wrap_s|)) Bool (and
  (|vert_formal_wrap_u 0| state)
  (|vert_formal_wrap_u 1| state)
))
(define-fun |vert_formal_wrap_i| ((state |vert_formal_wrap_s|)) Bool (and
  (= (= ((_ extract 0 0) (|vert_formal_wrap#0| state)) #b1) false) ; $auto$async2sync.cc:107:execute$221
  (= (= ((_ extract 0 0) (|vert_formal_wrap#1| state)) #b1) true) ; $auto$async2sync.cc:116:execute$207
  (= (= ((_ extract 0 0) (|vert_formal_wrap#2| state)) #b1) false) ; _started
  (= (|vert_formal_wrap#4| state) #b00000000000000000000000000000000) ; fsm_6
  (= (|vert_formal_wrap#5| state) #b00000000000000000000000000000000) ; fsm_8
))
(define-fun |vert_formal_wrap_h| ((state |vert_formal_wrap_s|)) Bool true)
(define-fun |vert_formal_wrap_t| ((state |vert_formal_wrap_s|) (next_state |vert_formal_wrap_s|)) Bool (and
  (= (|vert_formal_wrap#9| state) (|vert_formal_wrap#5| next_state)) ; $procdff$183 \fsm_8
  (= (|vert_formal_wrap#10| state) (|vert_formal_wrap#4| next_state)) ; $procdff$182 \fsm_6
  (= #b1 (|vert_formal_wrap#2| next_state)) ; $procdff$184 \_started
  (= (ite (|vert_formal_wrap#13| state) #b1 #b0) (|vert_formal_wrap#1| next_state)) ; $auto$async2sync.cc:118:execute$208 $auto$async2sync.cc:116:execute$207
  (= (|vert_formal_wrap#7| state) (|vert_formal_wrap#0| next_state)) ; $auto$async2sync.cc:110:execute$223 $auto$async2sync.cc:107:execute$221
)) ; end of module vert_formal_wrap
; yosys-smt2-topmod vert_formal_wrap
; end of yosys output
